DIMENSION :16
NODE_COORD_SECTION
1 86.17573293309977 -88.75973618431104
2 -95.67433378620518 -47.990040427951406
3 54.837754414203346 91.42135554056586
4 -64.76492817214168 -23.902858325074618
5 -5.1695427442381146 -2.2090371012291286
6 -42.11546836535265 -78.44948170818287
7 49.73228992005963 -81.0175390114538
8 62.99634512140514 26.104438426076044
9 92.29274310267482 27.77469550593156
10 -58.24521080197464 -4.263990126350748
11 -41.27260833415918 64.93813919035273
12 -76.77870020043798 3.6743723204659204
13 -4.1107105929886245 38.473481940975915
14 32.746729893288745 46.54133200358373
15 -36.416487121580346 -20.613444770032558
16 -80.39549163432119 -25.74452011691919
EOF
